N = 198;
M = 470;
Edge_Start = [1, 1, 2, 3, 3, 4, 5, 5, 6, 7, 7, 9, 9, 11, 11, 12, 13, 13, 14, 15, 16, 17, 17, 18, 19, 20, 21, 22, 23, 25, 25, 27, 27, 28, 29, 29, 30, 31, 31, 32, 33, 34, 35, 36, 37, 37, 38, 39, 40, 40, 41, 42, 43, 44, 44, 46, 48, 49, 50, 50, 51, 52, 52, 53, 54, 54, 55, 56, 56, 57, 58, 58, 60, 61, 61, 62, 63, 64, 65, 65, 66, 67, 68, 69, 69, 71, 71, 72, 73, 74, 75, 75, 76, 77, 77, 78, 79, 80, 80, 81, 82, 82, 84, 85, 86, 86, 88, 89, 90, 90, 91, 92, 93, 94, 94, 95, 96, 97, 98, 98, 100, 101, 101, 102, 103, 103, 104, 105, 106, 107, 107, 109, 109, 110, 111, 111, 112, 113, 113, 114, 115, 115, 117, 117, 118, 119, 120, 120, 121, 122, 123, 124, 124, 126, 126, 127, 128, 128, 129, 131, 132, 132, 133, 134, 134, 135, 136, 136, 137, 138, 138, 140, 141, 141, 143, 143, 144, 145, 145, 147, 147, 149, 149, 150, 151, 151, 152, 153, 153, 154, 155, 155, 156, 157, 157, 159, 160, 160, 161, 162, 162, 163, 164, 166, 166, 167, 168, 168, 169, 171, 172, 172, 173, 174, 175, 176, 177, 178, 178, 181, 182, 184, 185, 186, 187, 188, 189, 190, 191, 192, 193, 194, 195, 196, 197, 2, 20, 3, 4, 22, 5, 6, 24, 7, 8, 26, 10, 28, 12, 30, 13, 14, 32, 15, 34, 17, 18, 36, 19, 38, 21, 41, 23, 24, 26, 45, 28, 47, 29, 30, 49, 31, 32, 51, 33, 34, 35, 55, 37, 38, 57, 39, 59, 41, 60, 42, 62, 44, 45, 64, 47, 68, 50, 51, 70, 52, 53, 72, 54, 55, 74, 56, 57, 76, 58, 59, 78, 61, 62, 81, 63, 64, 65, 66, 85, 67, 68, 69, 70, 89, 72, 91, 73, 74, 75, 76, 95, 77, 78, 97, 79, 99, 81, 100, 82, 83, 102, 85, 86, 87, 106, 108, 90, 91, 110, 92, 112, 94, 95, 114, 96, 116, 98, 99, 118, 101, 102, 121, 103, 104, 123, 105, 125, 107, 108, 127, 110, 129, 111, 112, 131, 113, 114, 133, 115, 116, 135, 118, 137, 119, 139, 121, 140, 122, 142, 124, 125, 144, 127, 146, 128, 129, 148, 130, 132, 133, 152, 134, 135, 154, 136, 137, 156, 138, 139, 158, 141, 142, 161, 144, 163, 145, 146, 165, 148, 167, 150, 169, 151, 152, 171, 153, 154, 173, 155, 156, 175, 157, 158, 177, 179, 161, 180, 162, 163, 182, 164, 165, 167, 186, 168, 169, 188, 170, 172, 173, 192, 174, 194, 176, 196, 178, 179, 198, 182, 183, 185, 186, 187, 188, 189, 190, 191, 192, 193, 194, 195, 196, 197, 198];
Edge_End = [2, 20, 3, 4, 22, 5, 6, 24, 7, 8, 26, 10, 28, 12, 30, 13, 14, 32, 15, 34, 17, 18, 36, 19, 38, 21, 41, 23, 24, 26, 45, 28, 47, 29, 30, 49, 31, 32, 51, 33, 34, 35, 55, 37, 38, 57, 39, 59, 41, 60, 42, 62, 44, 45, 64, 47, 68, 50, 51, 70, 52, 53, 72, 54, 55, 74, 56, 57, 76, 58, 59, 78, 61, 62, 81, 63, 64, 65, 66, 85, 67, 68, 69, 70, 89, 72, 91, 73, 74, 75, 76, 95, 77, 78, 97, 79, 99, 81, 100, 82, 83, 102, 85, 86, 87, 106, 108, 90, 91, 110, 92, 112, 94, 95, 114, 96, 116, 98, 99, 118, 101, 102, 121, 103, 104, 123, 105, 125, 107, 108, 127, 110, 129, 111, 112, 131, 113, 114, 133, 115, 116, 135, 118, 137, 119, 139, 121, 140, 122, 142, 124, 125, 144, 127, 146, 128, 129, 148, 130, 132, 133, 152, 134, 135, 154, 136, 137, 156, 138, 139, 158, 141, 142, 161, 144, 163, 145, 146, 165, 148, 167, 150, 169, 151, 152, 171, 153, 154, 173, 155, 156, 175, 157, 158, 177, 179, 161, 180, 162, 163, 182, 164, 165, 167, 186, 168, 169, 188, 170, 172, 173, 192, 174, 194, 176, 196, 178, 179, 198, 182, 183, 185, 186, 187, 188, 189, 190, 191, 192, 193, 194, 195, 196, 197, 198, 1, 1, 2, 3, 3, 4, 5, 5, 6, 7, 7, 9, 9, 11, 11, 12, 13, 13, 14, 15, 16, 17, 17, 18, 19, 20, 21, 22, 23, 25, 25, 27, 27, 28, 29, 29, 30, 31, 31, 32, 33, 34, 35, 36, 37, 37, 38, 39, 40, 40, 41, 42, 43, 44, 44, 46, 48, 49, 50, 50, 51, 52, 52, 53, 54, 54, 55, 56, 56, 57, 58, 58, 60, 61, 61, 62, 63, 64, 65, 65, 66, 67, 68, 69, 69, 71, 71, 72, 73, 74, 75, 75, 76, 77, 77, 78, 79, 80, 80, 81, 82, 82, 84, 85, 86, 86, 88, 89, 90, 90, 91, 92, 93, 94, 94, 95, 96, 97, 98, 98, 100, 101, 101, 102, 103, 103, 104, 105, 106, 107, 107, 109, 109, 110, 111, 111, 112, 113, 113, 114, 115, 115, 117, 117, 118, 119, 120, 120, 121, 122, 123, 124, 124, 126, 126, 127, 128, 128, 129, 131, 132, 132, 133, 134, 134, 135, 136, 136, 137, 138, 138, 140, 141, 141, 143, 143, 144, 145, 145, 147, 147, 149, 149, 150, 151, 151, 152, 153, 153, 154, 155, 155, 156, 157, 157, 159, 160, 160, 161, 162, 162, 163, 164, 166, 166, 167, 168, 168, 169, 171, 172, 172, 173, 174, 175, 176, 177, 178, 178, 181, 182, 184, 185, 186, 187, 188, 189, 190, 191, 192, 193, 194, 195, 196, 197];
L = [1, 1, 1, 1, 1, 1, 1, 1, 1, 1, 1, 1, 1, 1, 1, 1, 1, 1, 1, 1, 1, 1, 1, 1, 1, 1, 1, 1, 1, 1, 1, 1, 1, 1, 1, 1, 1, 1, 1, 1, 1, 1, 1, 1, 1, 1, 1, 1, 1, 1, 1, 1, 1, 1, 1, 1, 1, 1, 1, 1, 1, 1, 1, 1, 1, 1, 1, 1, 1, 1, 1, 1, 1, 1, 1, 1, 1, 1, 1, 1, 1, 1, 1, 1, 1, 1, 1, 1, 1, 1, 1, 1, 1, 1, 1, 1, 1, 1, 1, 1, 1, 1, 1, 1, 1, 1, 1, 1, 1, 1, 1, 1, 1, 1, 1, 1, 1, 1, 1, 1, 1, 1, 1, 1, 1, 1, 1, 1, 1, 1, 1, 1, 1, 1, 1, 1, 1, 1, 1, 1, 1, 1, 1, 1, 1, 1, 1, 1, 1, 1, 1, 1, 1, 1, 1, 1, 1, 1, 1, 1, 1, 1, 1, 1, 1, 1, 1, 1, 1, 1, 1, 1, 1, 1, 1, 1, 1, 1, 1, 1, 1, 1, 1, 1, 1, 1, 1, 1, 1, 1, 1, 1, 1, 1, 1, 1, 1, 1, 1, 1, 1, 1, 1, 1, 1, 1, 1, 1, 1, 1, 1, 1, 1, 1, 1, 1, 1, 1, 1, 1, 1, 1, 1, 1, 1, 1, 1, 1, 1, 1, 1, 1, 1, 1, 1, 1, 1, 1, 1, 1, 1, 1, 1, 1, 1, 1, 1, 1, 1, 1, 1, 1, 1, 1, 1, 1, 1, 1, 1, 1, 1, 1, 1, 1, 1, 1, 1, 1, 1, 1, 1, 1, 1, 1, 1, 1, 1, 1, 1, 1, 1, 1, 1, 1, 1, 1, 1, 1, 1, 1, 1, 1, 1, 1, 1, 1, 1, 1, 1, 1, 1, 1, 1, 1, 1, 1, 1, 1, 1, 1, 1, 1, 1, 1, 1, 1, 1, 1, 1, 1, 1, 1, 1, 1, 1, 1, 1, 1, 1, 1, 1, 1, 1, 1, 1, 1, 1, 1, 1, 1, 1, 1, 1, 1, 1, 1, 1, 1, 1, 1, 1, 1, 1, 1, 1, 1, 1, 1, 1, 1, 1, 1, 1, 1, 1, 1, 1, 1, 1, 1, 1, 1, 1, 1, 1, 1, 1, 1, 1, 1, 1, 1, 1, 1, 1, 1, 1, 1, 1, 1, 1, 1, 1, 1, 1, 1, 1, 1, 1, 1, 1, 1, 1, 1, 1, 1, 1, 1, 1, 1, 1, 1, 1, 1, 1, 1, 1, 1, 1, 1, 1, 1, 1, 1, 1, 1, 1, 1, 1, 1, 1, 1, 1, 1, 1, 1, 1, 1, 1, 1, 1, 1, 1, 1, 1, 1, 1, 1, 1, 1, 1, 1, 1, 1, 1, 1, 1, 1, 1, 1, 1, 1, 1, 1, 1, 1, 1, 1, 1, 1];
T = [1, 1, 1, 1, 1, 1, 1, 1, 1, 1, 1, 1, 1, 1, 1, 1, 1, 1, 1, 1, 1, 1, 1, 1, 1, 1, 1, 1, 1, 1, 1, 1, 1, 1, 1, 1, 1, 1, 1, 1, 1, 1, 1, 1, 1, 1, 1, 1, 1, 1, 1, 1, 1, 1, 1, 1, 1, 1, 1, 1, 1, 1, 1, 1, 1, 1, 1, 1, 1, 1, 1, 1, 1, 1, 1, 1, 1, 1, 1, 1, 1, 1, 1, 1, 1, 1, 1, 1, 1, 1, 1, 1, 1, 1, 1, 1, 1, 1, 1, 1, 1, 1, 1, 1, 1, 1, 1, 1, 1, 1, 1, 1, 1, 1, 1, 1, 1, 1, 1, 1, 1, 1, 1, 1, 1, 1, 1, 1, 1, 1, 1, 1, 1, 1, 1, 1, 1, 1, 1, 1, 1, 1, 1, 1, 1, 1, 1, 1, 1, 1, 1, 1, 1, 1, 1, 1, 1, 1, 1, 1, 1, 1, 1, 1, 1, 1, 1, 1, 1, 1, 1, 1, 1, 1, 1, 1, 1, 1, 1, 1, 1, 1, 1, 1, 1, 1, 1, 1, 1, 1, 1, 1, 1, 1, 1, 1, 1, 1, 1, 1, 1, 1, 1, 1, 1, 1, 1, 1, 1, 1, 1, 1, 1, 1, 1, 1, 1, 1, 1, 1, 1, 1, 1, 1, 1, 1, 1, 1, 1, 1, 1, 1, 1, 1, 1, 1, 1, 1, 1, 1, 1, 1, 1, 1, 1, 1, 1, 1, 1, 1, 1, 1, 1, 1, 1, 1, 1, 1, 1, 1, 1, 1, 1, 1, 1, 1, 1, 1, 1, 1, 1, 1, 1, 1, 1, 1, 1, 1, 1, 1, 1, 1, 1, 1, 1, 1, 1, 1, 1, 1, 1, 1, 1, 1, 1, 1, 1, 1, 1, 1, 1, 1, 1, 1, 1, 1, 1, 1, 1, 1, 1, 1, 1, 1, 1, 1, 1, 1, 1, 1, 1, 1, 1, 1, 1, 1, 1, 1, 1, 1, 1, 1, 1, 1, 1, 1, 1, 1, 1, 1, 1, 1, 1, 1, 1, 1, 1, 1, 1, 1, 1, 1, 1, 1, 1, 1, 1, 1, 1, 1, 1, 1, 1, 1, 1, 1, 1, 1, 1, 1, 1, 1, 1, 1, 1, 1, 1, 1, 1, 1, 1, 1, 1, 1, 1, 1, 1, 1, 1, 1, 1, 1, 1, 1, 1, 1, 1, 1, 1, 1, 1, 1, 1, 1, 1, 1, 1, 1, 1, 1, 1, 1, 1, 1, 1, 1, 1, 1, 1, 1, 1, 1, 1, 1, 1, 1, 1, 1, 1, 1, 1, 1, 1, 1, 1, 1, 1, 1, 1, 1, 1, 1, 1, 1, 1, 1, 1, 1, 1, 1, 1, 1, 1, 1, 1, 1, 1, 1, 1, 1, 1, 1, 1, 1, 1, 1, 1, 1, 1, 1];
Lower_Bound = [2, 2, 3, 4, 4, 5, 6, 7, 18, 19, 18, 19, 18, 19, 21, 26, 24, 25, 24, 2, 2, 3, 4, 5, 8, 7, 19, 17, 16, 17, 16, 17, 18, 20, 21, 23, 23, 23, 25, 4, 5, 4, 9, 8, 9, 20, 20, 13, 15, 14, 15, 16, 17, 18, 19, 22, 21, 22, 24, 5, 6, 5, 6, 7, 8, 9, 10, 11, 13, 13, 16, 17, 19, 19, 20, 22, 22, 24, 24, 8, 8, 8, 10, 10, 9, 10, 11, 14, 13, 14, 15, 16, 21, 20, 21, 24, 23, 24, 25, 9, 10, 9, 11, 12, 12, 12, 12, 13, 17, 15, 16, 17, 18, 19, 21, 21, 24, 25, 28, 12, 11, 12, 12, 13, 13, 14, 14, 14, 15, 16, 17, 19, 19, 20, 22, 22, 23, 24, 25, 13, 14, 13, 14, 13, 15, 15, 17, 16, 21, 21, 20, 19, 20, 21, 23, 23, 24, 25, 29, 16, 15, 16, 16, 16, 15, 18, 18, 19, 19, 23, 21, 22, 21, 22, 24, 26, 25, 26, 27, 17, 19, 17, 18, 21, 20, 19, 20, 20, 20, 23, 22, 26, 25, 23, 25, 26, 26, 27];
Upper_Bound = [28, 5, 12, 14, 7, 10, 9, 12, 21, 27, 23, 21, 33, 21, 22, 31, 31, 27, 25, 3, 4, 8, 30, 15, 12, 8, 20, 27, 24, 28, 38, 21, 24, 21, 31, 36, 26, 25, 26, 13, 16, 6, 12, 13, 13, 23, 22, 14, 20, 15, 20, 18, 21, 23, 28, 27, 28, 45, 25, 9, 12, 9, 11, 10, 11, 10, 11, 16, 16, 17, 19, 27, 26, 20, 35, 28, 31, 30, 27, 23, 9, 10, 16, 18, 12, 12, 12, 15, 14, 17, 16, 19, 28, 23, 22, 27, 25, 29, 43, 16, 14, 27, 12, 17, 13, 15, 17, 22, 19, 20, 17, 20, 21, 22, 39, 27, 28, 26, 29, 17, 12, 21, 27, 16, 20, 20, 15, 15, 19, 21, 18, 20, 24, 22, 27, 26, 25, 27, 28, 17, 26, 16, 18, 15, 18, 29, 20, 19, 25, 28, 22, 30, 23, 22, 32, 26, 25, 31, 30, 18, 16, 17, 25, 18, 16, 32, 28, 21, 21, 27, 22, 27, 22, 51, 29, 30, 27, 32, 30, 20, 21, 20, 22, 29, 28, 26, 27, 45, 22, 26, 25, 34, 29, 31, 26, 27, 31, 31];
Start = 1;
End = 198;
Time = 31;
